(set-info :smt-lib-version 2.6)
(set-logic QF_S)
(set-info :source |
Generated by: Hongjian Jiang, Oliver Markgraf, Daniel Stan, Anthony W. Lin, Philipp Ruemmer
Generated on: 2025-04-11
Application: Using String Solvers to solve RMC problems encoded as CHC over Strings
Target solver: cvc5, OSTRICH, Z3, Z3alpha, Z3-noodler
Time limit: 60.0
Benchmarks are extracted by running HornStr https://arg-git.informatik.uni-kl.de/pub/string-chc-lib on all benchmarks
provided in the repository and gathering the string queries sent to the string solvers.
|)
(set-info :license "https://creativecommons.org/licenses/by/4.0/")
(set-info :category "industrial")
(set-info :status unknown)
(declare-fun varout () String)
(assert (let ((a!1 (re.union (re.union (re.union (str.to_re "E") (str.to_re "O"))
                               (str.to_re "1"))
                     (str.to_re "0"))))
(let ((a!2 (re.* (re.union (re.union a!1 (str.to_re "W")) (str.to_re "B")))))
  (str.in_re varout a!2))))
(declare-fun varin () String)
(assert (let ((a!1 (re.union (re.union (re.union (str.to_re "E") (str.to_re "O"))
                               (str.to_re "1"))
                     (str.to_re "0"))))
(let ((a!2 (re.* (re.union (re.union a!1 (str.to_re "W")) (str.to_re "B")))))
  (str.in_re varin a!2))))
(declare-fun X () String)
(declare-fun isin () Bool)
(declare-fun isout () Bool)
(assert (let ((a!1 (re.++ (re.* (re.++ (str.to_re "W") (str.to_re "W")))
                  (re.++ (str.to_re "W") (str.to_re "W"))))
      (a!5 (re.union (str.to_re "")
                     (re.++ (str.to_re "0") (re.* (str.to_re "0")))))
      (a!12 (re.union (str.to_re "")
                      (re.++ (str.to_re "B") (re.* (str.to_re "B")))))
      (a!14 (re.union (str.to_re "")
                      (re.++ (str.to_re "1") (re.* (str.to_re "1"))))))
(let ((a!2 (re.union (re.++ (str.to_re "W") (str.to_re "W"))
                     (re.++ (re.++ (str.to_re "W") (str.to_re "W")) a!1)))
      (a!7 (re.++ (str.to_re "W") (re.++ (re.* (str.to_re "0")) a!5))))
(let ((a!3 (re.++ (re.* (re.++ (str.to_re "W") (str.to_re "W"))) a!2))
      (a!8 (re.++ (re.* (re.++ (str.to_re "W") (str.to_re "W"))) a!7)))
(let ((a!4 (re.union (re.union (re.++ (str.to_re "O") (str.to_re "W"))
                               (str.to_re "E"))
                     (re.++ (re.++ (str.to_re "O") (str.to_re "W")) a!3)))
      (a!9 (re.union a!7 (re.++ (re.++ (str.to_re "W") (str.to_re "W")) a!8))))
(let ((a!6 (re.++ a!4 (re.++ (re.* (str.to_re "0")) a!5)))
      (a!10 (re.++ (re.* (re.++ (str.to_re "W") (str.to_re "W"))) a!9)))
(let ((a!11 (re.union a!6 (re.++ (re.++ (str.to_re "E") (str.to_re "W")) a!10))))
(let ((a!13 (re.++ a!11 (re.++ (re.* (str.to_re "B")) a!12))))
(let ((a!15 (re.++ a!13 (re.++ (re.* (str.to_re "1")) a!14))))
  (and (str.in_re X (re.union a!13 a!15)) (not isin) (= X varout) isout))))))))))
(assert (let ((a!1 (re.++ (re.union (str.to_re "O") (str.to_re "B"))
                  (re.* (re.union (str.to_re "O") (str.to_re "B")))))
      (a!3 (re.union (re.union (re.union (str.to_re "E") (str.to_re "1"))
                               (str.to_re "0"))
                     (str.to_re "W")))
      (a!7 (re.union (re.union (re.union (str.to_re "O") (str.to_re "1"))
                               (str.to_re "0"))
                     (str.to_re "W"))))
(let ((a!2 (re.++ (re.* (re.union (str.to_re "O") (str.to_re "B")))
                  (re.union (str.to_re "") a!1)))
      (a!4 (re.++ (re.* (re.union (str.to_re "O") (str.to_re "B"))) a!3)))
(let ((a!5 (re.union a!3 (re.++ (re.union (str.to_re "O") (str.to_re "B")) a!4))))
(let ((a!6 (re.++ (re.* (re.union (str.to_re "O") (str.to_re "B"))) a!5)))
(let ((a!8 (re.* (re.union (re.union a!7 (str.to_re "B"))
                           (re.++ (str.to_re "E") a!6)))))
(let ((a!9 (re.++ (re.union (re.union a!7 (str.to_re "B"))
                            (re.++ (str.to_re "E") a!6))
                  (re.++ a!8 (re.++ (str.to_re "E") a!2)))))
(let ((a!10 (re.++ a!8 (re.union (re.++ (str.to_re "E") a!2) a!9))))
  (str.in_re varout (re.union a!2 (re.++ a!6 a!10)))))))))))
(check-sat)
(exit)
